&control
    calculation  = 'scf'
    prefix       = 'hbn_vb_excited_nosoc'
    pseudo_dir   = './pseudo'
    outdir       = './scratch'
/

&system
    ibrav        = 0
    nat          = 71
    ntyp         = 2
    ecutwfc      = 65
    ecutrho      = 520
    nbnd         = 150
    occupations  = 'from_input'
    noncolin     = .false.
    lspinorb     = .false.
    nspin        = 2
    starting_magnetization(1) = 0.5
    starting_magnetization(2) = 0.5
/
&electrons
    conv_thr     = 1.0d-8
    mixing_beta  = 0.3
    diagonalization = 'david'
    electron_maxstep = 300
    startingpot  = 'file'
    startingwfc  = 'file'
/
ATOMIC_SPECIES
  B  10.811  B.pbe-n-rrkjus_psl.1.0.0.UPF
  N  14.007  N.pbe-n-rrkjus_psl.1.0.0.UPF

CELL_PARAMETERS angstrom
  15.02400000000000 0.00000000000000 0.00000000000000
  7.51200000000000 13.01116566645740 0.00000000000000
  0.00000000000000 0.00000000000000 20.00000000000000

K_POINTS automatic
  1 1 1  0 0 0

OCCUPATIONS
1.000000 1.000000 1.000000 1.000000 1.000000 1.000000 1.000000 1.000000 1.000000 1.000000
1.000000 1.000000 1.000000 1.000000 1.000000 1.000000 1.000000 1.000000 1.000000 1.000000
1.000000 1.000000 1.000000 1.000000 1.000000 1.000000 1.000000 1.000000 1.000000 1.000000
1.000000 1.000000 1.000000 1.000000 1.000000 1.000000 1.000000 1.000000 1.000000 1.000000
1.000000 1.000000 1.000000 1.000000 1.000000 1.000000 1.000000 1.000000 1.000000 1.000000
1.000000 1.000000 1.000000 1.000000 1.000000 1.000000 1.000000 1.000000 1.000000 1.000000
1.000000 1.000000 1.000000 1.000000 1.000000 1.000000 1.000000 1.000000 1.000000 1.000000
1.000000 1.000000 1.000000 1.000000 1.000000 1.000000 1.000000 1.000000 1.000000 1.000000
1.000000 1.000000 1.000000 1.000000 1.000000 1.000000 1.000000 1.000000 1.000000 1.000000
1.000000 1.000000 1.000000 1.000000 1.000000 1.000000 1.000000 1.000000 1.000000 1.000000
1.000000 1.000000 1.000000 1.000000 1.000000 1.000000 1.000000 1.000000 1.000000 1.000000
1.000000 1.000000 1.000000 1.000000 1.000000 1.000000 1.000000 1.000000 1.000000 1.000000
1.000000 1.000000 1.000000 1.000000 1.000000 1.000000 1.000000 1.000000 1.000000 1.000000
1.000000 1.000000 1.000000 1.000000 1.000000 1.000000 1.000000 1.000000 1.000000 1.000000
1.000000 1.000000 1.000000 1.000000 0.075000 0.000000 0.000000 0.000000 0.000000 0.000000
1.000000 1.000000 1.000000 1.000000 1.000000 1.000000 1.000000 1.000000 1.000000 1.000000
1.000000 1.000000 1.000000 1.000000 1.000000 1.000000 1.000000 1.000000 1.000000 1.000000
1.000000 1.000000 1.000000 1.000000 1.000000 1.000000 1.000000 1.000000 1.000000 1.000000
1.000000 1.000000 1.000000 1.000000 1.000000 1.000000 1.000000 1.000000 1.000000 1.000000
1.000000 1.000000 1.000000 1.000000 1.000000 1.000000 1.000000 1.000000 1.000000 1.000000
1.000000 1.000000 1.000000 1.000000 1.000000 1.000000 1.000000 1.000000 1.000000 1.000000
1.000000 1.000000 1.000000 1.000000 1.000000 1.000000 1.000000 1.000000 1.000000 1.000000
1.000000 1.000000 1.000000 1.000000 1.000000 1.000000 1.000000 1.000000 1.000000 1.000000
1.000000 1.000000 1.000000 1.000000 1.000000 1.000000 1.000000 1.000000 1.000000 1.000000
1.000000 1.000000 1.000000 1.000000 1.000000 1.000000 1.000000 1.000000 1.000000 1.000000
1.000000 1.000000 1.000000 1.000000 1.000000 1.000000 1.000000 1.000000 1.000000 1.000000
1.000000 1.000000 1.000000 1.000000 1.000000 1.000000 1.000000 1.000000 1.000000 1.000000
1.000000 1.000000 1.000000 1.000000 1.000000 1.000000 1.000000 1.000000 1.000000 1.000000
1.000000 1.000000 1.000000 1.000000 1.000000 1.000000 1.000000 1.000000 1.000000 1.000000
0.925000 0.000000 0.000000 0.000000 0.000000 0.000000 0.000000 0.000000 0.000000 0.000000

ATOMIC_POSITIONS angstrom
N 1.4460000000 0.0000000000 10.0000000000  
B 1.2520000000 2.1685276111 10.0000000000  
N 2.6980000000 2.1685276111 10.0000000000  
B 2.5040000000 4.3370552222 10.0000000000  
N 3.9500000000 4.3370552222 10.0000000000  
B 3.7560000000 6.5055828332 10.0000000000  
N 5.2020000000 6.5055828332 10.0000000000  
B 5.0080000000 8.6741104443 10.0000000000  
N 6.4540000000 8.6741104443 10.0000000000  
B 6.2600000000 10.8426380554 10.0000000000  
N 7.7060000000 10.8426380554 10.0000000000  
B 2.5040000000 0.0000000000 10.0000000000  
N 3.9500000000 0.0000000000 10.0000000000  
B 3.7560000000 2.1685276111 10.0000000000  
N 5.2020000000 2.1685276111 10.0000000000  
B 5.0080000000 4.3370552222 10.0000000000  
N 6.4540000000 4.3370552222 10.0000000000  
B 6.2600000000 6.5055828332 10.0000000000  
N 7.7060000000 6.5055828332 10.0000000000  
B 7.5120000000 8.6741104443 10.0000000000  
N 8.9580000000 8.6741104443 10.0000000000  
B 8.7640000000 10.8426380554 10.0000000000  
N 10.2100000000 10.8426380554 10.0000000000  
B 5.0080000000 0.0000000000 10.0000000000  
N 6.4540000000 0.0000000000 10.0000000000  
B 6.2600000000 2.1685276111 10.0000000000  
N 7.7060000000 2.1685276111 10.0000000000  
B 7.5120000000 4.3370552222 10.0000000000  
N 8.9580000000 4.3370552222 10.0000000000  
B 8.7640000000 6.5055828332 10.0000000000  
N 10.2100000000 6.5055828332 10.0000000000  
B 10.0160000000 8.6741104443 10.0000000000  
N 11.4620000000 8.6741104443 10.0000000000  
B 11.2680000000 10.8426380554 10.0000000000  
N 12.7140000000 10.8426380554 10.0000000000  
B 7.5120000000 0.0000000000 10.0000000000  
N 8.9580000000 0.0000000000 10.0000000000  
B 8.7640000000 2.1685276111 10.0000000000  
N 10.2100000000 2.1685276111 10.0000000000  
B 10.0160000000 4.3370552222 10.0000000000  
N 11.4620000000 4.3370552222 10.0000000000  
B 11.2680000000 6.5055828332 10.0000000000  
N 12.7140000000 6.5055828332 10.0000000000  
B 12.5200000000 8.6741104443 10.0000000000  
N 13.9660000000 8.6741104443 10.0000000000  
B 13.7720000000 10.8426380554 10.0000000000  
N 15.2180000000 10.8426380554 10.0000000000  
B 10.0160000000 0.0000000000 10.0000000000  
N 11.4620000000 0.0000000000 10.0000000000  
B 11.2680000000 2.1685276111 10.0000000000  
N 12.7140000000 2.1685276111 10.0000000000  
B 12.5200000000 4.3370552222 10.0000000000  
N 13.9660000000 4.3370552222 10.0000000000  
B 13.7720000000 6.5055828332 10.0000000000  
N 15.2180000000 6.5055828332 10.0000000000  
B 15.0240000000 8.6741104443 10.0000000000  
N 16.4700000000 8.6741104443 10.0000000000  
B 16.2760000000 10.8426380554 10.0000000000  
N 17.7220000000 10.8426380554 10.0000000000  
B 12.5200000000 0.0000000000 10.0000000000  
N 13.9660000000 0.0000000000 10.0000000000  
B 13.7720000000 2.1685276111 10.0000000000  
N 15.2180000000 2.1685276111 10.0000000000  
B 15.0240000000 4.3370552222 10.0000000000  
N 16.4700000000 4.3370552222 10.0000000000  
B 16.2760000000 6.5055828332 10.0000000000  
N 17.7220000000 6.5055828332 10.0000000000  
B 17.5280000000 8.6741104443 10.0000000000  
N 18.9740000000 8.6741104443 10.0000000000  
B 18.7800000000 10.8426380554 10.0000000000  
N 20.2260000000 10.8426380554 10.0000000000  